n = 15
Q1 = [0 12 40 0 14 26 40 19 0 0 40 0 29 26 42; 0 0 45 0 8 46 42 0 9 19 17 0 6 0 0; 0 0 0 0 0 25 34 0 11 32 0 44 18 30 36; 0 0 0 0 0 0 44 0 14 27 27 0 0 0 44; 0 0 0 0 0 46 38 43 37 0 45 39 46 46 50; 0 0 0 0 0 0 24 32 0 6 28 18 23 6 25; 0 0 0 0 0 0 0 33 34 0 5 0 14 46 27; 0 0 0 0 0 0 0 0 32 26 0 0 49 36 0; 0 0 0 0 0 0 0 0 0 47 17 30 46 5 22; 0 0 0 0 0 0 0 0 0 0 25 28 39 0 0; 0 0 0 0 0 0 0 0 0 0 0 0 17 0 9; 0 0 0 0 0 0 0 0 0 0 0 0 30 5 19; 0 0 0 0 0 0 0 0 0 0 0 0 0 0 22; 0 0 0 0 0 0 0 0 0 0 0 0 0 0 47; 0 0 0 0 0 0 0 0 0 0 0 0 0 0 0]
Q2 = [0.0 45.0 9.0 0.0 43.0 23.0 2.0 36.0 0.0 0.0 6.0 0.0 21.0 8.0 5.0; 0.0 0.0 2.0 0.0 47.0 1.0 3.0 0.0 45.0 48.0 42.0 0.0 49.0 0.0 0.0; 0.0 0.0 0.0 0.0 0.0 5.0 9.0 0.0 39.0 0.0 0.0 1.0 37.0 19.0 11.0; 0.0 0.0 0.0 0.0 0.0 0.0 4.0 0.0 40.0 18.0 5.0 0.0 0.0 0.0 4.0; 0.0 0.0 0.0 0.0 0.0 0.0 2.0 1.0 1.0 0.0 2.0 10.0 3.0 0.0 0.0; 0.0 0.0 0.0 0.0 0.0 0.0 45.0 1.0 0.0 49.0 12.0 37.0 42.0 49.0 25.0; 0.0 0.0 0.0 0.0 0.0 0.0 0.0 7.0 4.0 0.0 45.0 0.0 41.0 3.0 16.0; 0.0 0.0 0.0 0.0 0.0 0.0 0.0 0.0 15.0 15.0 0.0 0.0 1.0 5.0 0.0; 0.0 0.0 0.0 0.0 0.0 0.0 0.0 0.0 0.0 3.0 48.0 10.0 2.0 46.0 44.0; 0.0 0.0 0.0 0.0 0.0 0.0 0.0 0.0 0.0 0.0 0.0 2.0 3.0 0.0 0.0; 0.0 0.0 0.0 0.0 0.0 0.0 0.0 0.0 0.0 0.0 0.0 0.0 40.0 0.0 48.0; 0.0 0.0 0.0 0.0 0.0 0.0 0.0 0.0 0.0 0.0 0.0 0.0 6.0 45.0 31.0; 0.0 0.0 0.0 0.0 0.0 0.0 0.0 0.0 0.0 0.0 0.0 0.0 0.0 0.0 29.0; 0.0 0.0 0.0 0.0 0.0 0.0 0.0 0.0 0.0 0.0 0.0 0.0 0.0 0.0 2.0; 0.0 0.0 0.0 0.0 0.0 0.0 0.0 0.0 0.0 0.0 0.0 0.0 0.0 0.0 0.0]
Q3 = [0 0 3 69 1 19 15 6 69 69 14 69 3 42 17; 0 0 13 69 3 7 13 69 9 1 0 69 3 69 69; 0 0 0 69 69 60 6 69 16 61 69 3 5 20 18; 0 0 0 0 69 69 9 69 8 13 42 69 69 69 18; 0 0 0 0 0 12 21 6 24 69 2 7 6 20 5; 0 0 0 0 0 0 0 55 69 7 17 1 0 3 17; 0 0 0 0 0 0 0 13 9 69 9 69 6 6 13; 0 0 0 0 0 0 0 0 22 7 69 69 13 28 69; 0 0 0 0 0 0 0 0 0 3 0 7 11 1 1; 0 0 0 0 0 0 0 0 0 0 59 66 23 69 69; 0 0 0 0 0 0 0 0 0 0 0 69 6 69 8; 0 0 0 0 0 0 0 0 0 0 0 0 27 5 19; 0 0 0 0 0 0 0 0 0 0 0 0 0 69 10; 0 0 0 0 0 0 0 0 0 0 0 0 0 0 5; 0 0 0 0 0 0 0 0 0 0 0 0 0 0 0]
